PROBLEM NAME: eil51_n19
KNAPSACK DATA TYPE: multiple strongly correlated
DIMENSION: 19
NUMBER OF ITEMS: 18
CAPACITY OF KNAPSACK: 7503
MIN SPEED: 0.1
MAX SPEED: 1
RENTING RATIO: 10.00
EDGE_WEIGHT_TYPE: CEIL_2D
NODE_COORD_SECTION	(INDEX, X, Y):
1	37	52
2	49	49
3	52	64
4	52	33
5	51	21
6	36	16
7	52	41
8	27	23
9	16	57
10	7	38
11	43	67
12	58	48
13	37	69
14	62	63
15	32	22
16	45	35
17	10	17
18	5	64
19	30	15
ITEMS SECTION	(INDEX, PROFIT, WEIGHT, ASSIGNED NODE NUMBER):
1	1091	891	13
2	1067	867	11
3	1008	808	3
4	927	727	14
5	910	710	12
6	772	572	2
7	718	518	7
8	714	514	16
9	634	434	4
10	631	431	5
11	583	383	6
12	543	343	19
13	481	281	15
14	438	138	8
15	418	218	17
16	412	212	10
17	316	116	18
18	291	91	9
